; benchmark generated from python API
(set-info :status unknown)
(declare-datatypes ((RealState 0)) (((RMk1 (rval1 Real)) (RMk2 (rval2 Real)))))
 (assert
 (forall ((|v11:0| Real) )(forall ((|v10:1| Real) )(forall ((|v9:2| Real) )(forall ((|v8:3| Real) )(exists ((|v7:4_st| RealState) (val!3728 Real) )(exists ((|v6:5_st| RealState) (val!3729 Real) )(exists ((|v5:6_st| RealState) (val!3730 Real) )(exists ((|v4:7_st| RealState) (val!3731 Real) )(forall ((|v3:8| Real) )(forall ((|v2:9| Real) )(forall ((|v1:10| Real) )(forall ((|v0:11| Real) )(let ((?x1557 (- 20.0)))
 (let ((?x525 (+ (+ (+ (* (- 12.0) |v3:8|) (* 15.0 |v10:1|)) (* 4.0 |v1:10|)) (* (- 15.0) (rval2 |v7:4_st|)))))
 (let ((?x2166 (- 17.0)))
 (let ((?x1555 (* 8.0 |v8:3|)))
 (let ((?x2514 (+ (+ (+ (* 19.0 (rval2 |v7:4_st|)) (* (- 14.0) |v3:8|)) (* 7.0 |v0:11|)) ?x1555)))
 (let ((?x1232 (- 19.0)))
 (let ((?x323 (+ (+ (+ (* (- 15.0) (rval2 |v4:7_st|)) (* 20.0 |v10:1|)) (* 12.0 |v10:1|)) (* (- 10.0) (rval2 |v7:4_st|)))))
 (let ((?x672 (* 16.0 |v0:11|)))
 (let ((?x2014 (+ (+ (* 15.0 |v9:2|) (* 19.0 (rval2 |v7:4_st|))) (* (- 13.0) (rval2 |v4:7_st|)))))
 (let (($x2715 (and (and (<= (+ ?x2014 ?x672) 19.0) (<= ?x323 ?x1232)) (or (<= ?x2514 ?x2166) (<= ?x525 ?x1557)))))
 (let ((?x2256 (+ (+ (+ (* 16.0 |v3:8|) (* ?x2166 |v0:11|)) (* 10.0 |v1:10|)) (* 10.0 |v0:11|))))
 (let (($x954 (<= ?x2256 6.0)))
 (let ((?x2593 (rval2 |v7:4_st|)))
 (let ((?x460 (* 4.0 ?x2593)))
 (let ((?x572 (+ (+ (+ (* (- 3.0) |v11:0|) (* (- 8.0) ?x2593)) (* ?x1557 |v2:9|)) ?x460)))
 (let ((?x1292 (- 1.0)))
 (let ((?x1646 (* ?x1292 |v1:10|)))
 (let ((?x1683 (+ (+ (+ (* ?x2166 |v1:10|) (* 15.0 |v9:2|)) (* 2.0 (rval2 |v4:7_st|))) ?x1646)))
 (let ((?x1709 (+ (+ (+ (* 19.0 ?x2593) (* (- 11.0) (rval2 |v4:7_st|))) (* 10.0 |v11:0|)) |v10:1|)))
 (let (($x771 (or (or (<= ?x1709 16.0) (<= ?x1683 ?x1232)) (and (<= ?x572 17.0) $x954))))
 (let ((?x743 (- 10.0)))
 (let ((?x874 (+ (+ (* ?x1232 (rval2 |v5:6_st|)) (* 10.0 |v11:0|)) (* (- 2.0) (rval2 |v4:7_st|)))))
 (let ((?x881 (- 13.0)))
 (let ((?x3014 (* 19.0 |v2:9|)))
 (let (($x176 (<= (+ (+ (+ (* 3.0 |v8:3|) (* 11.0 |v9:2|)) (* 3.0 |v3:8|)) ?x3014) ?x881)))
 (let ((?x49 (- 6.0)))
 (let ((?x1401 (* ?x49 |v2:9|)))
 (let (($x386 (<= (+ (+ (+ |v10:1| (* ?x2166 |v0:11|)) (* (- 9.0) |v1:10|)) ?x1401) 13.0)))
 (let ((?x3175 (- 15.0)))
 (let ((?x3172 (+ (+ (+ (* 0.0 |v8:3|) (* (- 14.0) |v3:8|)) |v3:8|) (* (- 7.0) |v8:3|))))
 (let (($x2505 (or (or (<= ?x3172 ?x3175) $x386) (or $x176 (<= (+ ?x874 (* (- 11.0) |v11:0|)) ?x743)))))
 (let ((?x961 (+ (+ (+ (* 15.0 |v8:3|) (* 14.0 |v0:11|)) (* 10.0 |v11:0|)) (* (- 18.0) |v10:1|))))
 (let ((?x1402 (* 2.0 |v0:11|)))
 (let ((?x715 (+ (+ (+ (* ?x881 |v8:3|) (* (- 5.0) |v2:9|)) (* ?x743 (rval2 |v5:6_st|))) ?x1402)))
 (let ((?x2275 (+ (+ (+ (* 12.0 |v11:0|) (* 13.0 |v8:3|)) (* ?x1557 |v1:10|)) (* 18.0 |v11:0|))))
 (let ((?x209 (- 16.0)))
 (let ((?x1424 (+ (+ (+ (* ?x881 (rval2 |v5:6_st|)) (* ?x49 (rval2 |v6:5_st|))) (* 14.0 ?x2593)) (* (- 7.0) ?x2593))))
 (let (($x290 (or (or (<= ?x1424 ?x209) (<= ?x2275 ?x743)) (or (<= ?x715 1.0) (<= ?x961 11.0)))))
 (let ((?x465 (- 3.0)))
 (let ((?x1988 (* ?x465 |v1:10|)))
 (let ((?x1109 (+ (+ (+ (* 15.0 |v3:8|) (* 9.0 (rval2 |v5:6_st|))) (* 13.0 |v3:8|)) ?x1988)))
 (let (($x2933 (<= (+ (+ (+ ?x1402 (* ?x49 |v1:10|)) (* ?x1292 (rval2 |v5:6_st|))) (* ?x209 |v0:11|)) ?x743)))
 (let ((?x1693 (rval2 |v5:6_st|)))
 (let ((?x2918 (* 3.0 ?x1693)))
 (let ((?x271 (+ (+ (+ (* 13.0 |v1:10|) (* 13.0 (rval2 |v4:7_st|))) (* ?x465 |v10:1|)) ?x2918)))
 (let ((?x208 (* ?x881 |v0:11|)))
 (let ((?x1516 (+ (+ (+ (* 8.0 ?x2593) (* (- 2.0) (rval2 |v6:5_st|))) (* 13.0 |v0:11|)) ?x208)))
 (let (($x3223 (or (and (<= ?x1516 ?x743) (<= ?x271 1.0)) (and $x2933 (<= ?x1109 5.0)))))
 (let ((?x1841 (rval2 |v4:7_st|)))
 (let ((?x1032 (* 2.0 ?x1841)))
 (let ((?x663 (+ (+ (* 5.0 |v9:2|) (* (- 12.0) ?x1693)) (* (- 11.0) (rval2 |v6:5_st|)))))
 (let ((?x1770 (* 5.0 |v3:8|)))
 (let (($x1944 (<= (+ (+ (+ (* 13.0 ?x1693) (* (- 9.0) |v1:10|)) (rval2 |v6:5_st|)) ?x1770) 15.0)))
 (let ((?x1628 (- 18.0)))
 (let (($x2873 (<= (+ (+ (+ (* 11.0 |v2:9|) ?x1841) (* (- 12.0) ?x1693)) (* ?x1557 |v2:9|)) ?x1628)))
 (let ((?x2184 (+ (+ (+ (* ?x1557 |v11:0|) (* ?x1557 (rval2 |v6:5_st|))) (* ?x1232 |v10:1|)) (* 19.0 |v10:1|))))
 (let (($x2442 (or (or (<= ?x2184 1.0) $x2873) (and $x1944 (<= (+ ?x663 ?x1032) 18.0)))))
 (let ((?x644 (* 10.0 |v2:9|)))
 (let (($x2579 (<= (+ (+ (+ (* ?x3175 |v3:8|) (* 18.0 |v2:9|)) (* 18.0 |v2:9|)) ?x644) 8.0)))
 (let ((?x96 (* 7.0 |v9:2|)))
 (let ((?x1904 (+ (+ (* (- 2.0) (rval2 |v6:5_st|)) (* (- 8.0) |v8:3|)) (* 2.0 |v8:3|))))
 (let ((?x2679 (- 5.0)))
 (let ((?x607 (+ (+ (+ (* 13.0 ?x1841) (* (- 9.0) ?x1693)) (* ?x1232 |v0:11|)) (* 17.0 |v11:0|))))
 (let ((?x957 (* 19.0 ?x1693)))
 (let (($x2463 (<= (+ (+ (+ (* (- 4.0) |v9:2|) (* ?x3175 ?x1841)) (* 15.0 ?x1693)) ?x957) 12.0)))
 (let ((?x2291 (+ (+ (+ ?x1646 (* (- 4.0) ?x1841)) (* 10.0 |v9:2|)) (* (- 9.0) ?x1841))))
 (let ((?x338 (* 20.0 |v9:2|)))
 (let ((?x292 (+ (+ (* 8.0 |v1:10|) (* ?x1232 |v1:10|)) (* (- 2.0) |v3:8|))))
 (let ((?x2145 (- 14.0)))
 (let ((?x2407 (* ?x2145 |v1:10|)))
 (let (($x2123 (<= (+ (+ (+ (* (- 12.0) |v2:9|) (* 4.0 (rval2 |v6:5_st|))) ?x2407) |v1:10|) ?x1292)))
 (let (($x1079 (and (and $x2123 (<= (+ ?x292 ?x338) 3.0)) (or (<= ?x2291 2.0) $x2463))))
 (let (($x2541 (and (or $x1079 (or (or (<= ?x607 ?x2679) (<= (+ ?x1904 ?x96) 13.0)) $x2579)) (or $x2442 $x3223))))
 (let ((?x325 (- 4.0)))
 (let ((?x199 (* 4.0 |v9:2|)))
 (let (($x1471 (<= (+ (+ (+ (* (- 7.0) |v3:8|) (* ?x465 ?x1693)) (* ?x1628 |v1:10|)) ?x199) ?x325)))
 (let (($x2761 (<= (+ (+ (+ (* 12.0 |v9:2|) (* ?x743 |v3:8|)) ?x1770) (* 15.0 |v3:8|)) 13.0)))
 (let ((?x1102 (* 12.0 |v0:11|)))
 (let (($x3202 (<= (+ (+ (+ (* ?x1628 ?x2593) (* 19.0 |v9:2|)) (* ?x743 |v10:1|)) ?x1102) 19.0)))
 (let (($x3123 (<= (+ (+ (+ (* ?x49 |v9:2|) (* 10.0 |v1:10|)) |v0:11|) (* ?x1628 |v8:3|)) 11.0)))
 (let ((?x1152 (+ (+ (+ (* ?x325 |v2:9|) (* 16.0 |v9:2|)) (* 20.0 ?x2593)) (* ?x1232 |v11:0|))))
 (let ((?x1479 (+ (+ (+ (* 5.0 ?x2593) (* 5.0 |v0:11|)) (* ?x49 |v0:11|)) (* ?x325 |v11:0|))))
 (let (($x1926 (<= (+ (+ (+ ?x1555 (* 15.0 |v9:2|)) (* 19.0 ?x2593)) (* 5.0 ?x1693)) ?x209)))
 (let ((?x578 (+ (+ (+ (* ?x3175 |v3:8|) (* (- 11.0) |v9:2|)) (* 2.0 |v2:9|)) (* 17.0 ?x2593))))
 (let ((?x2531 (- 9.0)))
 (let (($x2334 (<= (+ (+ (+ (* 8.0 ?x1841) ?x1770) (* ?x2679 |v1:10|)) (* 0.0 ?x1693)) ?x2531)))
 (let ((?x1044 (* 13.0 |v3:8|)))
 (let ((?x2628 (+ (+ (+ (* 12.0 (rval2 |v6:5_st|)) (* 9.0 |v2:9|)) (* 13.0 |v11:0|)) ?x1044)))
 (let (($x2843 (<= (+ (+ (+ ?x644 (* ?x1557 |v9:2|)) (* 10.0 |v11:0|)) (* 4.0 ?x1693)) 18.0)))
 (let (($x200 (<= (+ (+ (+ (* ?x3175 |v0:11|) (* ?x1557 |v0:11|)) ?x3014) (* ?x1292 |v0:11|)) 2.0)))
 (let ((?x341 (+ (+ (+ (* ?x2145 |v8:3|) (* 14.0 ?x1693)) (* ?x1628 ?x1841)) (* ?x2679 ?x1693))))
 (let (($x2325 (or (and (or (<= ?x341 ?x465) $x200) (and $x2843 (<= ?x2628 1.0))) (and (and $x2334 (<= ?x578 19.0)) (or $x1926 (<= ?x1479 16.0))))))
 (let (($x635 (and $x2325 (and (<= ?x1152 16.0) (and (and $x3123 $x3202) (or $x2761 $x1471))))))
 (let ((?x1399 (+ (+ (+ (* 18.0 |v9:2|) (* 15.0 |v0:11|)) (* 18.0 |v8:3|)) (* (- 11.0) |v10:1|))))
 (let ((?x1025 (* ?x881 ?x1693)))
 (let (($x1226 (<= (+ (+ (+ (* ?x1628 |v0:11|) (* ?x881 |v1:10|)) (* 5.0 |v11:0|)) ?x1025) 4.0)))
 (let ((?x2301 (* ?x1557 |v2:9|)))
 (let ((?x2099 (+ (+ (+ (* ?x1628 |v8:3|) (* ?x743 (rval2 |v6:5_st|))) (* 15.0 ?x2593)) ?x2301)))
 (let ((?x2413 (* 8.0 |v3:8|)))
 (let (($x207 (<= (+ (+ (+ (* 12.0 ?x1841) (* ?x1292 |v8:3|)) (* ?x1628 ?x1693)) ?x2413) 16.0)))
 (let ((?x1328 (* 16.0 |v2:9|)))
 (let ((?x2850 (* ?x3175 |v1:10|)))
 (let ((?x2678 (+ (+ (+ (* (- 8.0) (rval2 |v6:5_st|)) (* ?x2166 (rval2 |v6:5_st|))) ?x2850) ?x1328)))
 (let ((?x131 (* 13.0 |v0:11|)))
 (let ((?x1240 (+ (+ (+ (* 10.0 ?x2593) (* 3.0 |v1:10|)) (* 6.0 (rval2 |v6:5_st|))) ?x131)))
 (let ((?x2727 (- 11.0)))
 (let (($x902 (<= (+ (+ (+ (* ?x3175 ?x1693) (* ?x1557 |v10:1|)) ?x957) (* ?x2166 |v3:8|)) ?x2727)))
 (let ((?x101 (+ (+ (+ (* 10.0 |v9:2|) (* 4.0 ?x1841)) (* (- 7.0) (rval2 |v6:5_st|))) (* ?x325 |v8:3|))))
 (let ((?x2993 (* 15.0 ?x1693)))
 (let (($x436 (<= (+ (+ (+ (* 9.0 ?x1693) (* ?x49 ?x1693)) (* ?x209 |v2:9|)) ?x2993) 5.0)))
 (let (($x474 (or (and (and $x436 (<= ?x101 2.0)) (or $x902 (<= ?x1240 17.0))) (or (and (<= ?x2678 19.0) $x207) (or (<= ?x2099 ?x743) $x1226)))))
 (let (($x904 (and (or (or $x474 (<= ?x1399 17.0)) $x635) (and $x2541 (and (or $x290 $x2505) (or $x771 $x2715))))))
 (let (($x3027 (not (= |v4:7_st| (RMk1 val!3731)))))
 (let (($x820 (not (= |v5:6_st| (RMk1 val!3730)))))
 (let (($x1286 (not (= |v6:5_st| (RMk1 val!3729)))))
 (let (($x2483 (not (= |v7:4_st| (RMk1 val!3728)))))
 (and $x2483 $x1286 $x820 $x3027 $x904))))))))))))))))))))))))))))))))))))))))))))))))))))))))))))))))))))))))))))))))))))))))))))))))))))))))))))))))))))))
 )
 )
 )
 )
 )
 )
 )
 )
 )
 )
 )
 )
(check-sat)
